This is Ipopt version 3.14.16, running with linear solver MUMPS 5.7.3.

Number of nonzeros in equality constraint Jacobian...:        0
Number of nonzeros in inequality constraint Jacobian.:      182
Number of nonzeros in Lagrangian Hessian.............:        0

Total number of variables............................:       13
                     variables with only lower bounds:        0
                variables with lower and upper bounds:       13
                     variables with only upper bounds:        0
Total number of equality constraints.................:        0
Total number of inequality constraints...............:       14
        inequality constraints with only lower bounds:        0
   inequality constraints with lower and upper bounds:        0
        inequality constraints with only upper bounds:       14

iter    objective    inf_pr   inf_du lg(mu)  ||d||  lg(rg) alpha_du alpha_pr  ls
   0  4.4257943e-02 3.91e+00 6.41e-01   0.0 0.00e+00    -  0.00e+00 0.00e+00   0
   1  1.2637499e-01 4.73e-01 3.30e+00  -1.2 1.30e+00    -  4.41e-01 1.00e+00f  1
   2  1.4133359e-01 0.00e+00 1.27e-01  -1.5 2.38e-01    -  9.87e-01 1.00e+00h  1
   3  1.4168959e-01 0.00e+00 2.22e-02  -3.1 1.72e-02    -  9.94e-01 1.00e+00h  1
   4  1.3999876e-01 1.73e-02 3.96e-04  -3.7 4.21e-01    -  1.00e+00 1.00e+00h  1
   5  1.4028189e-01 5.58e-03 5.29e-04  -4.3 2.66e-01    -  9.95e-01 1.00e+00h  1
   6  1.4039413e-01 0.00e+00 1.45e-04  -5.2 1.21e-01    -  9.80e-01 1.00e+00h  1

Number of Iterations....: 6

                                   (scaled)                 (unscaled)
Objective...............:   1.4039412685787786e-01    1.4039412685787786e-01
Dual infeasibility......:   1.4472633295370933e-04    1.4472633295370933e-04
Constraint violation....:   0.0000000000000000e+00    0.0000000000000000e+00
Variable bound violation:   0.0000000000000000e+00    0.0000000000000000e+00
Complementarity.........:   1.6311675876389012e-05    1.6311675876389012e-05
Overall NLP error.......:   1.4472633295370933e-04    1.4472633295370933e-04


Number of objective function evaluations             = 7
Number of objective gradient evaluations             = 7
Number of equality constraint evaluations            = 0
Number of inequality constraint evaluations          = 7
Number of equality constraint Jacobian evaluations   = 0
Number of inequality constraint Jacobian evaluations = 7
Number of Lagrangian Hessian evaluations             = 0
Total seconds in IPOPT                               = 0.827

EXIT: Optimal Solution Found.
